id: 1789
name: pds-60
group: mittelmann/pds
method: 2

Gurobi 7.0.2 (linux64, Matlab) logging started Mon Mar 26 10:45:59 2018


Gurobi 7.0.2 (linux64) logging started Mon Mar 26 10:45:59 2018

Optimize a model with 99431 rows, 329643 columns and 712779 nonzeros
Coefficient statistics:
  Matrix range     [1e+00, 1e+00]
  Objective range  [3e+01, 1e+05]
  Bounds range     [8e+00, 2e+04]
  RHS range        [3e+01, 9e+04]
Presolve removed 53635 rows and 53027 columns
Presolve time: 0.73s
Presolved: 45796 rows, 276616 columns, 625792 nonzeros

Ordering time: 1.14s

Barrier statistics:
 AA' NZ     : 3.935e+05
 Factor NZ  : 1.319e+07 (roughly 240 MBytes of memory)
 Factor Ops : 1.612e+10 (less than 1 second per iteration)
 Threads    : 4

                  Objective                Residual
Iter       Primal          Dual         Primal    Dual     Compl     Time
   0  -4.30162986e+10 -1.56027280e+12  1.22e+06 2.93e+04  3.50e+08     2s
   1  -3.62304502e+10 -1.29881590e+12  5.77e+05 1.14e+04  1.69e+08     3s
   2  -1.32891272e+10 -1.01007733e+12  2.80e+05 1.28e+03  8.24e+07     3s
   3   2.58444763e+09 -7.18469638e+11  9.91e+04 6.98e-10  2.99e+07     3s
   4   1.08370757e+10 -4.11465075e+11  3.14e+04 2.79e-09  9.77e+06     4s
   5   1.37155320e+10 -2.16989566e+11  9.12e+03 3.61e-09  3.08e+06     4s
   6   1.47497469e+10 -1.08267676e+11  2.03e+03 2.39e-09  8.58e+05     4s
   7   1.49612632e+10 -4.38175507e+10  3.78e+02 2.10e-09  2.51e+05     5s
   8   1.48611559e+10 -2.14602063e+10  7.12e+01 1.46e-09  1.16e+05     5s
   9   1.47786061e+10 -6.21992513e+09  3.54e+01 7.57e-10  6.46e+04     5s
  10   1.46694206e+10 -2.32857173e+09  1.19e+01 6.40e-10  4.94e+04     6s
  11   1.46339256e+10  5.73588831e+09  7.63e+00 2.62e-10  2.57e+04     6s
  12   1.45884938e+10  7.33405066e+09  5.40e+00 2.47e-10  2.08e+04     6s
  13   1.45462106e+10  1.05908961e+10  3.99e+00 1.31e-10  1.13e+04     6s
  14   1.45020577e+10  1.17628642e+10  2.94e+00 1.02e-10  7.82e+03     7s
  15   1.44539430e+10  1.26168278e+10  2.09e+00 5.82e-11  5.23e+03     7s
  16   1.44075707e+10  1.30429810e+10  1.37e+00 5.82e-11  3.87e+03     7s
  17   1.43856328e+10  1.31679817e+10  1.09e+00 4.37e-11  3.45e+03     8s
  18   1.43728930e+10  1.35725641e+10  9.11e-01 4.37e-11  2.26e+03     8s
  19   1.43557297e+10  1.38672881e+10  6.84e-01 2.91e-11  1.38e+03     8s
  20   1.43308175e+10  1.39643301e+10  3.98e-01 2.91e-11  1.03e+03     9s
  21   1.43216398e+10  1.40639690e+10  3.16e-01 3.27e-11  7.27e+02     9s
  22   1.43161457e+10  1.41051832e+10  2.73e-01 2.91e-11  5.96e+02     9s
  23   1.43122311e+10  1.41633393e+10  2.42e-01 2.91e-11  4.21e+02     9s
  24   1.42961062e+10  1.42066419e+10  1.22e-01 2.91e-11  2.52e+02    10s
  25   1.42886879e+10  1.42299677e+10  8.25e-02 2.91e-11  1.66e+02    10s
  26   1.42830285e+10  1.42430490e+10  5.64e-02 2.91e-11  1.13e+02    10s
  27   1.42796183e+10  1.42532033e+10  4.30e-02 2.91e-11  7.46e+01    11s
  28   1.42779188e+10  1.42556241e+10  3.66e-02 2.91e-11  6.30e+01    11s
  29   1.42746279e+10  1.42576580e+10  2.50e-02 2.91e-11  4.79e+01    11s
  30   1.42720328e+10  1.42601029e+10  1.68e-02 2.91e-11  3.37e+01    12s
  31   1.42704848e+10  1.42629272e+10  1.22e-02 2.91e-11  2.13e+01    12s
  32   1.42689037e+10  1.42638689e+10  7.78e-03 2.91e-11  1.42e+01    12s
  33   1.42680837e+10  1.42646604e+10  5.58e-03 2.91e-11  9.67e+00    12s
  34   1.42673933e+10  1.42650148e+10  3.72e-03 4.73e-11  6.72e+00    13s
  35   1.42670224e+10  1.42652840e+10  2.80e-03 2.91e-11  4.91e+00    13s
  36   1.42666781e+10  1.42656087e+10  1.91e-03 2.91e-11  3.02e+00    13s
  37   1.42661904e+10  1.42657727e+10  6.64e-04 2.91e-11  1.18e+00    14s
  38   1.42660806e+10  1.42658600e+10  4.03e-04 2.91e-11  6.24e-01    14s
  39   1.42659657e+10  1.42658804e+10  1.32e-04 2.91e-11  2.41e-01    14s
  40   1.42659423e+10  1.42658940e+10  8.01e-05 2.91e-11  1.36e-01    15s
  41   1.42659195e+10  1.42658987e+10  3.11e-05 2.91e-11  5.88e-02    15s
  42   1.42659053e+10  1.42659029e+10  1.03e-06 2.91e-11  6.54e-03    15s
  43   1.42659044e+10  1.42659044e+10  1.32e-07 4.37e-11  3.64e-05    15s
  44   1.42659044e+10  1.42659044e+10  1.40e-10 5.09e-11  3.64e-08    16s
  45   1.42659044e+10  1.42659044e+10  2.94e-09 5.82e-11  1.21e-10    16s

Barrier solved model in 45 iterations and 16.13 seconds
Optimal objective 1.42659044e+10

Crossover log...

   22805 DPushes remaining with DInf 0.0000000e+00                16s
       0 DPushes remaining with DInf 0.0000000e+00                16s

   20975 PPushes remaining with PInf 0.0000000e+00                16s
       0 PPushes remaining with PInf 0.0000000e+00                17s

  Push phase complete: Pinf 0.0000000e+00, Dinf 1.6634516e-10     17s

Iteration    Objective       Primal Inf.    Dual Inf.      Time
   43783    1.4265904e+10   0.000000e+00   0.000000e+00     17s
   43783    1.4265904e+10   0.000000e+00   0.000000e+00     17s

Solved in 43783 iterations and 17.25 seconds
Optimal objective  1.426590441e+10
status: OPTIMAL
